decision_x1=[0,2];
decision_x2=[0,2];
decision_x3=[0,2];
decision_x4=[0,2];
decision_x5=[0,2];
decision_x6=[0,2];
decision_x7=[0,2];
decision_x8=[0,2];
decision_x9=[0,2];
decision_x10=[0,2];
decision_x11=[0,2];
decision_x12=[0,2];
decision_x13=[0,2];
decision_x14=[0,2];
decision_x15=[0,2];
random_y1=[0,2];
random_y2=[0,2];
random_y3=[0,2];
constraint_x2_x1=[
0,0,6.3|
0,1,1.6|
0,2,3.6|
1,0,8.8|
1,1,5.4|
1,2,9.2|
2,0,8.6|
2,1,6.8|
2,2,8.4|
];
constraint_x3_x1=[
0,0,6.4|
0,1,3.6|
0,2,8|
1,0,3.5|
1,1,9.6|
1,2,5.4|
2,0,9.7|
2,1,0.9|
2,2,2.3|
];
constraint_x4_x1=[
0,0,2.5|
0,1,4.6|
0,2,9|
1,0,5.3|
1,1,4.8|
1,2,1.6|
2,0,4.9|
2,1,7.3|
2,2,0.064|
];
constraint_x4_x3=[
0,0,4.6|
0,1,3.1|
0,2,4.2|
1,0,0.17|
1,1,2.1|
1,2,8.4|
2,0,7.6|
2,1,6.1|
2,2,4.1|
];
constraint_x5_x2=[
0,0,9.9|
0,1,4.8|
0,2,0.9|
1,0,9.5|
1,1,4.7|
1,2,9.3|
2,0,4.9|
2,1,2.3|
2,2,4|
];
constraint_x5_x3=[
0,0,9.7|
0,1,1.5|
0,2,0.22|
1,0,3.1|
1,1,9.5|
1,2,9.4|
2,0,6.6|
2,1,9|
2,2,7.1|
];
constraint_x6_x1=[
0,0,5.5|
0,1,0.84|
0,2,7.7|
1,0,6|
1,1,8.3|
1,2,9.9|
2,0,9.5|
2,1,5.5|
2,2,5.7|
];
constraint_x6_x3=[
0,0,0.47|
0,1,6.7|
0,2,8.5|
1,0,9.9|
1,1,1.4|
1,2,2.8|
2,0,8.9|
2,1,7|
2,2,3.5|
];
constraint_x6_x5=[
0,0,3|
0,1,7|
0,2,3.6|
1,0,2.9|
1,1,4.7|
1,2,4.1|
2,0,6.7|
2,1,5.5|
2,2,1.4|
];
constraint_x7_x4=[
0,0,7.8|
0,1,4.7|
0,2,6.5|
1,0,5.2|
1,1,3.8|
1,2,9.4|
2,0,0.71|
2,1,3.9|
2,2,0.7|
];
constraint_x7_x6=[
0,0,7.1|
0,1,3.8|
0,2,2.4|
1,0,7.4|
1,1,0.4|
1,2,2.4|
2,0,4.2|
2,1,4.6|
2,2,0.95|
];
constraint_x8_x1=[
0,0,2.9|
0,1,7.7|
0,2,4.4|
1,0,2.4|
1,1,6.3|
1,2,2.3|
2,0,2.6|
2,1,6.4|
2,2,4.3|
];
constraint_x9_x1=[
0,0,4.4|
0,1,6.6|
0,2,2.7|
1,0,4.5|
1,1,2.2|
1,2,6.7|
2,0,3.4|
2,1,10|
2,2,5.9|
];
constraint_x9_x3=[
0,0,3.1|
0,1,3.3|
0,2,8.9|
1,0,5.1|
1,1,9.3|
1,2,2.7|
2,0,2.9|
2,1,3.8|
2,2,2.6|
];
constraint_x9_x4=[
0,0,2.7|
0,1,5.3|
0,2,5.7|
1,0,4.7|
1,1,9.6|
1,2,0.19|
2,0,0.79|
2,1,9.9|
2,2,3.2|
];
constraint_x9_x5=[
0,0,0.94|
0,1,4.1|
0,2,4.6|
1,0,3.9|
1,1,3.4|
1,2,4.3|
2,0,1.1|
2,1,8.7|
2,2,1.4|
];
constraint_x9_x6=[
0,0,7.3|
0,1,5|
0,2,3.5|
1,0,7.7|
1,1,7.2|
1,2,4.8|
2,0,1.2|
2,1,3.9|
2,2,3.4|
];
constraint_x10_x2=[
0,0,9.4|
0,1,8.3|
0,2,6.2|
1,0,4.2|
1,1,4.5|
1,2,9.7|
2,0,4.3|
2,1,0.039|
2,2,8.4|
];
constraint_x10_x5=[
0,0,6.5|
0,1,6.6|
0,2,5.1|
1,0,9|
1,1,7.7|
1,2,2.2|
2,0,2.4|
2,1,2|
2,2,9.8|
];
constraint_x10_x7=[
0,0,7.5|
0,1,5.9|
0,2,8.9|
1,0,4.3|
1,1,1.2|
1,2,9.8|
2,0,0.44|
2,1,2.3|
2,2,8.8|
];
constraint_x10_x8=[
0,0,1.4|
0,1,8.7|
0,2,1.2|
1,0,0.55|
1,1,4.1|
1,2,4.8|
2,0,6.7|
2,1,2.7|
2,2,9.9|
];
constraint_x10_x9=[
0,0,3.8|
0,1,5.6|
0,2,6.5|
1,0,8.4|
1,1,3.9|
1,2,2.7|
2,0,6.8|
2,1,3.7|
2,2,7.5|
];
constraint_x11_x2=[
0,0,0.57|
0,1,0.6|
0,2,6.2|
1,0,6|
1,1,3.9|
1,2,9.6|
2,0,6.8|
2,1,3.9|
2,2,2.2|
];
constraint_x11_x5=[
0,0,8.5|
0,1,0.92|
0,2,0.57|
1,0,8.8|
1,1,8.3|
1,2,3.6|
2,0,1.7|
2,1,6.1|
2,2,2.5|
];
constraint_x11_x7=[
0,0,5.3|
0,1,7.1|
0,2,3.9|
1,0,3.1|
1,1,4.3|
1,2,9.5|
2,0,6.8|
2,1,4|
2,2,1.1|
];
constraint_x11_x8=[
0,0,2.7|
0,1,7.1|
0,2,0.37|
1,0,7.9|
1,1,3.8|
1,2,3.3|
2,0,9.6|
2,1,8.5|
2,2,6|
];
constraint_x11_x10=[
0,0,1.9|
0,1,2.6|
0,2,3.5|
1,0,0.0086|
1,1,9|
1,2,3.7|
2,0,3.9|
2,1,9.5|
2,2,8|
];
constraint_x12_x7=[
0,0,1.4|
0,1,7|
0,2,0.4|
1,0,7.7|
1,1,1.4|
1,2,4.1|
2,0,1.8|
2,1,6.1|
2,2,2.3|
];
constraint_x12_x8=[
0,0,3.9|
0,1,6.9|
0,2,8.9|
1,0,2.5|
1,1,6.2|
1,2,1.3|
2,0,2.2|
2,1,5.9|
2,2,5.9|
];
constraint_x13_x2=[
0,0,5.8|
0,1,9.5|
0,2,1.5|
1,0,7.6|
1,1,8.2|
1,2,9.8|
2,0,1.2|
2,1,2.2|
2,2,3|
];
constraint_x13_x3=[
0,0,9.7|
0,1,2.6|
0,2,1.2|
1,0,5.8|
1,1,9.1|
1,2,1.3|
2,0,4.6|
2,1,4.6|
2,2,4|
];
constraint_x13_x4=[
0,0,8.4|
0,1,6.4|
0,2,6.3|
1,0,9.7|
1,1,5.7|
1,2,6.9|
2,0,2.1|
2,1,3.9|
2,2,4.1|
];
constraint_x13_x6=[
0,0,8.2|
0,1,7.3|
0,2,4.8|
1,0,8|
1,1,2.3|
1,2,8.6|
2,0,5.6|
2,1,5.2|
2,2,0.5|
];
constraint_x13_x7=[
0,0,7.3|
0,1,7.7|
0,2,2.7|
1,0,5.5|
1,1,0.8|
1,2,7.4|
2,0,8|
2,1,4.7|
2,2,8.3|
];
constraint_x13_x8=[
0,0,0.063|
0,1,6.6|
0,2,8.3|
1,0,8.5|
1,1,2.3|
1,2,3.3|
2,0,4.7|
2,1,5.2|
2,2,8.5|
];
constraint_x13_x9=[
0,0,0.95|
0,1,5.1|
0,2,9.3|
1,0,0.85|
1,1,9.5|
1,2,8.6|
2,0,1.3|
2,1,8.3|
2,2,3.8|
];
constraint_x13_x10=[
0,0,9.9|
0,1,6.6|
0,2,8.3|
1,0,4.7|
1,1,6|
1,2,4.6|
2,0,7.6|
2,1,0.5|
2,2,7.6|
];
constraint_x13_x12=[
0,0,3.8|
0,1,2.7|
0,2,4.4|
1,0,1.2|
1,1,5.9|
1,2,8.9|
2,0,2.9|
2,1,4.4|
2,2,3.2|
];
constraint_x14_x2=[
0,0,9.1|
0,1,3.9|
0,2,1.4|
1,0,5.1|
1,1,7.1|
1,2,3.5|
2,0,7.2|
2,1,2.3|
2,2,9.9|
];
constraint_x14_x3=[
0,0,5.4|
0,1,1.3|
0,2,5.4|
1,0,8.8|
1,1,6.8|
1,2,4.1|
2,0,4.4|
2,1,9.9|
2,2,9.8|
];
constraint_x14_x4=[
0,0,6.9|
0,1,0.021|
0,2,5.4|
1,0,4.3|
1,1,0.47|
1,2,8.5|
2,0,0.47|
2,1,2|
2,2,6.7|
];
constraint_x14_x8=[
0,0,10|
0,1,8.7|
0,2,3.4|
1,0,7.1|
1,1,7.7|
1,2,0.88|
2,0,7.2|
2,1,0.95|
2,2,1.2|
];
constraint_x14_x9=[
0,0,7.7|
0,1,3|
0,2,9.6|
1,0,2.1|
1,1,9.8|
1,2,4.8|
2,0,8.9|
2,1,3.8|
2,2,3.3|
];
constraint_x14_x10=[
0,0,7.1|
0,1,6|
0,2,4.7|
1,0,5.9|
1,1,8.8|
1,2,5.6|
2,0,4.2|
2,1,2.2|
2,2,7.9|
];
constraint_x14_x11=[
0,0,0.99|
0,1,5.3|
0,2,0.12|
1,0,5.7|
1,1,4.5|
1,2,5.8|
2,0,6.3|
2,1,0.42|
2,2,5.9|
];
constraint_x14_x13=[
0,0,5.5|
0,1,5.9|
0,2,8.8|
1,0,4.6|
1,1,0.12|
1,2,3.9|
2,0,6.4|
2,1,7.4|
2,2,7.3|
];
constraint_x15_x2=[
0,0,7.9|
0,1,1.4|
0,2,1.2|
1,0,5.2|
1,1,1.3|
1,2,1.3|
2,0,6.8|
2,1,7.2|
2,2,1.7|
];
constraint_x15_x4=[
0,0,3.2|
0,1,2.7|
0,2,7.5|
1,0,6.3|
1,1,8.8|
1,2,7.2|
2,0,0.78|
2,1,3.3|
2,2,9.4|
];
constraint_x15_x5=[
0,0,2.2|
0,1,1.1|
0,2,4.6|
1,0,0.72|
1,1,4|
1,2,1.1|
2,0,3.2|
2,1,7.5|
2,2,5|
];
constraint_x15_x7=[
0,0,9.6|
0,1,2.2|
0,2,7.7|
1,0,8|
1,1,9.2|
1,2,9.9|
2,0,0.38|
2,1,6.3|
2,2,3.9|
];
constraint_x15_x10=[
0,0,6.5|
0,1,9.3|
0,2,3.9|
1,0,5.4|
1,1,9.8|
1,2,1.6|
2,0,4.7|
2,1,5.6|
2,2,1.4|
];
constraint_x15_x12=[
0,0,0.2|
0,1,2|
0,2,2.2|
1,0,2.2|
1,1,5.1|
1,2,7.5|
2,0,7.5|
2,1,1.6|
2,2,5.7|
];
constraint_x15_x13=[
0,0,0.33|
0,1,9.7|
0,2,6.8|
1,0,7.6|
1,1,1.7|
1,2,7.8|
2,0,6.6|
2,1,5.9|
2,2,9|
];
constraint_x1_y1=[
0,0,5.1|
0,1,3.2|
0,2,8.5|
1,0,9.6|
1,1,8.7|
1,2,9.6|
2,0,8.4|
2,1,3.9|
2,2,5.2|
];
constraint_x2_y2=[
0,0,1.4|
0,1,2|
0,2,4.7|
1,0,4.8|
1,1,6.6|
1,2,3.9|
2,0,5.4|
2,1,7.8|
2,2,4.1|
];
constraint_x3_y3=[
0,0,2.2|
0,1,1|
0,2,6.4|
1,0,10|
1,1,0.31|
1,2,9.1|
2,0,5.6|
2,1,3.8|
2,2,9|
];
initial_distribution_y1=[0.4,0.47,0.13];
initial_distribution_y2=[0.49,0.22,0.29];
initial_distribution_y3=[0.83,0.029,0.14];
transition_y1=[
0.44,0.32,0.24|
0.1,0.58,0.32|
0.21,0.049,0.74|
];
transition_y2=[
0.33,0.36,0.31|
0.099,0.12,0.78|
0.45,0.4,0.15|
];
transition_y3=[
0.49,0.5,0.015|
0.35,0.42,0.23|
0.36,0.2,0.44|
];
